datasets/2-dimensional/CL_02_25_08.vbp
2
1000 1000 
25
294 145 30
414 671 72
319 592 4
563 132 88
36 843 54
959 618 64
889 676 90
715 575 26
658 202 94
275 780 28
453 864 72
416 344 49
718 442 54
250 712 19
232 45 28
221 661 61
105 118 84
106 304 23
780 440 67
18 83 53
39 121 54
399 776 16
988 605 9
30 496 54
76 671 77
