2-dimensional/CL_02_25_08.txt
1000 1000 
0 30 294 145 
1 72 414 671 
2 4 319 592 
3 88 563 132 
4 54 36 843 
5 64 959 618 
6 90 889 676 
7 26 715 575 
8 94 658 202 
9 28 275 780 
10 72 453 864 
11 49 416 344 
12 54 718 442 
13 19 250 712 
14 28 232 45 
15 61 221 661 
16 84 105 118 
17 23 106 304 
18 67 780 440 
19 53 18 83 
20 54 39 121 
21 16 399 776 
22 9 988 605 
23 54 30 496 
24 77 76 671 
